55037
5, 35, 24, 8, 44, 38, 50, 20, 7, 40, 43, 3, 6, 28, 55, 26, 54, 9, 14, 2, 52, 45, 11, 25, 31, 27, 1, 33, 42, 12, 18, 4, 30, 47, 34, 53, 10, 22, 16, 15, 36, 46, 39, 29, 21, 23, 17, 48, 49, 19, 32, 41, 13, 51, 37
